# input-path
C:\research\TranStat\v6\wuhan_Rt\

# output-path
C:\research\TranStat\v6\wuhan_Rt\

# min-max-days-and-probs-of-incubation-period
1
2  6
0.3  0.3  0.25  0.1  0.05

2  9
0.2  0.3  0.2  0.1  0.05  0.05  0.05  0.05

2  12
0.2  0.2  0.2  0.1  0.05  0.05  0.05  0.05  0.04  0.03  0.03


# primary-lower-upper-bounds-and-probs-of-infectious-days-relative-to-symptom-onset-day
1
0  10
1.00 1.00 1.00 0.80 0.80 0.60 0.40 0.20 0.20 0.10 0.05

0  12
1.00 1.00 1.00 1.00 1.00 0.80 0.80 0.60 0.40 0.20 0.20 0.10 0.05


0  14
1.00 1.00 1.00 1.00 1.00 1.00 1.00 0.80 0.80 0.60 0.40 0.20 0.20 0.10 0.05




# number-of-c2p-transmission-probabilities
1


# number-of-p2p-transmission-probabilities
3


# number-of-pathogenicity-groups
0


# number-of-preseason-immunity-groups
0


# number-of-time-independent-covariates
0


# number-of-time-dependent-covariates
0


# covariates-affecting-susceptibility-for-c2p-transmission
0: 

# covariates-affecting-susceptibility-for-p2p-transmission
0: 

# covariates-affecting-infectiousness-for-p2p-transmission
0:   

# interactions-for-p2p-transmission
0:

# covariates-affecting-pathogenicity
0:

# covariates-affecting-preseason-immunity
0:

# equal-parameters
3:
1:2  
1:3
1:4

# fixed-parameters
1:
1: 1e-10

# perform-simulation
0

# proportion-with-ambiguity-about-preimmunity-and-escape-status
0

# optimization-choice
0

# converge-criteria
1:
p1  1.0e-3
p2  1.0e-3
p3  1.0e-3

# initial-estimates
1:3
p1  1.0e-8
p2  1.0e-8
p3  1.0e-8

p1  1.0e-6
p2  1.0e-6
p3  1.0e-6

p1  1.0e-5
p2  1.0e-5
p3  1.0e-5

# search-bounds
1:
p1  1.000000e-20  1.000000e-001
p2  1.000000e-20  1.000000e-001
p3  1.000000e-20  1.000000e-001

# perform-EM-algorithm
0

# min-number-of-possible-status-to-use-mcem
0

# use-community-specific-weighting
0

# number-of-base-mcmc-samples
0

# number-of-burnin-mcmc-samples
0

# number-of-burnin-mcmc-iterations
0

# number-of-samplings-for-mc-error
0

# use-bootstrap-for-mc-error
0

# do-not-calculate-average-variance-for-mc-error
0

# check-missingness
0

# check-mixing
0

# check-runtime
0

# relative-infectivity-of-asymptomatic-case-for-simulation
0

# relative-infectivity-of-asymptomatic-case-for-estimation
0

# members-share-common-contact-history-within-communities
1

# automatically-generate-c2p-contact-file
1

# automatically-generate-p2p-contact-file
0

# use-c2p-offset
0

# use-p2p-offset
0

# adjust-for-selection-bias
1

# adjust-for-right-censoring
1

# prefix-index-cases
1

# epidemic-duration-for-calculating-CPI
61

# effective-lower-upper-bounds-of-infectious-days-relative-to-symptom-onset-day
0:

# multiplier-for-calculating-R0
1:
0      0
71000  0
0      0

# serial-division-of-epidemic-for-calculating-time-varying-R0
1:
30  59  5

# goodness-of-fit
1

# perform-statistical-test
0

# do-not-estimate-variance
0

# do-not-output-estimates
0

# simplify-output
1

# simplify-output-SAR
0

# simplify-output-R0
1

# run-transtat-silently
0

# write-error-log
0