# input-path
/Users/yy70876/teach/TranStat/Examples/power/cluster_randomization/100/

# output-path
/Users/yy70876/teach/TranStat/Examples/power/cluster_randomization/100/

# min-max-days-and-probs-of-incubation-period
1
1  3
0.2 0.6 0.2


# primary-lower-upper-bounds-and-probs-of-infectious-days-relative-to-symptom-onset-day
1
0  7
1.00 1.00 1.00 0.80 0.60 0.40 0.20 0.10

# number-of-c2p-transmission-probabilities
1


# number-of-p2p-transmission-probabilities
1


# number-of-pathogenicity-groups
0


# number-of-preseason-immunity-groups
0


# number-of-time-independent-covariates
1


# number-of-time-dependent-covariates
0

# covariates-affecting-susceptibility-for-c2p-transmission
1:1

# covariates-affecting-susceptibility-for-p2p-transmission
1:1

# covariates-affecting-infectiousness-for-p2p-transmission
1:1

# interactions-for-p2p-transmission
0:

# covariates-affecting-pathogenicity
0:

# covariates-affecting-preseason-immunity
0:

# illness-period-as-a-time-dependent-covariate-for-infectivity
0:


# equal-parameters
4:
1:1
1:2  
2:3 4
1:5

# fixed-parameters
0:

# perform-simulation
1

# number-of-simulations
10

# output-simulation-data
1

# parameters-for-simulation
b   1.0e-3
p   2.5e-2
OR1 0.5
OR2 0.5

# proportion-with-ambiguity-about-preimmunity-and-escape-status
0

# optimization-choice
0

# converge-criteria
1:
b   1.0e-4
p   1.0e-4
OR1  1.0e-4
OR2  1.0e-4

# initial-estimates
1:1
b   1.0e-5
p   1.0e-4
OR1  1.0
OR2  1.0


# search-bounds
1:
b  1.000000e-10  1.000000e-001
p  1.000000e-10  1.000000e-001
OR1  0.001  100
OR2  0.001  100


# perform-EM-algorithm
0

# min-number-of-possible-status-to-use-mcem
0

# use-community-specific-weighting
0

# number-of-base-mcmc-samples
0

# number-of-burnin-mcmc-samples
0

# number-of-burnin-mcmc-iterations
0

# number-of-samplings-for-mc-error
0

# use-bootstrap-for-mc-error
0

# do-not-calculate-average-variance-for-mc-error
1

# check-missingness
0

# check-mixing
0

# check-runtime
0

# relative-infectivity-of-asymptomatic-case-for-simulation
1

# relative-infectivity-of-asymptomatic-case-for-estimation
1

# members-share-common-contact-history-within-communities
1

# automatically-generate-c2p-contact-file
1

# automatically-generate-p2p-contact-file
1

# use-c2p-offset
0

# use-p2p-offset
0

# adjust-for-selection-bias
1

# adjust-for-right-censoring
1

# prefix-index-cases
1

# epidemic-duration-for-calculating-CPI
0

# effective-lower-upper-bounds-of-infectious-days-relative-to-symptom-onset-day
0:

# covariates-for-calculating-SAR-provided
0:

# multiplier-for-calculating-R0
0:

# serial-division-of-epidemic-for-calculating-time-varying-R0
0:

# goodness-of-fit
0

# perform-statistical-test
0

# do-not-estimate-variance
0

# do-not-output-estimates
0

# simplify-output
1

# simplify-output-SAR
1

# simplify-output-R0
0

# run-transtat-silently
1

# write-error-log
0
